5 6 77
2 1 1 4 2 8 20 31 59 
4 4 1 3 2 3 3 5 2 9 25 30 40 40 58 58 72 
3 2 1 2 2 2 3 5 37 37 49 49 77 
4 3 1 5 1 1 2 1 3 6 26 26 36 36 56 56 74 
6 2 1 4 1 4 1 4 2 5 2 5 2 0 5 5 7 7 9 25 31 31 36 36 39 
8 3 1 1 1 1 1 5 1 5 1 1 2 1 2 3 2 0 6 6 7 7 8 8 14 14 20 20 22 22 27 27 30 
